NAME : XML100_3121_15
DIMENSION : 101
NB_CLUSTERS : 28
CLUSTERING_ALG : DBSCAN
CLUSTERING_PARAMS : eps(46), minSamples(3)
CLUSTERS
1 0
2 1 9 27 41 45 48 59 89
3 4 7 21 29 94
4 8 15 47 58 70
5 10 75 99
6 13 22 31 50 53 63
7 20 93 98
8 61 64 100
9 23 36
10 6 92
11 37 43 57 77
12 26 74 80 85
13 30 32 78 82
14 11 28 72
15 18 46 73 87 91
16 14 39 52 96
17 34 35 67 71 86
18 2 38
19 56 60
20 51 79 97
21 16 40 62 66
22 24 49 65
23 5 88 95
24 3 54
25 12 17 44
26 19 25 33 42 55 68
27 69 76 83
28 81 84 90
EOF